unsat
(:max-memory         18.62
 :memory             18.51
 :nlsat-arith-var    3
 :nlsat-atoms        11
 :nlsat-bool-var     1
 :nlsat-clauses      9
 :nlsat-conflicts    3
 :nlsat-propagations 14
 :nlsat-stages       4
 :num-allocs         95787
 :rlimit-count       25335
 :time               0.01
 :total-time         0.03)
